row=9;
column=9;
Board=[|2,5,0,6,3,0,4,0,0|0,0,0,0,9,0,0,0,8|0,0,0,0,0,0,2,4,0|0,2,0,8,0,0,0,0,0|4,8,0,9,0,6,0,0,0|0,7,0,2,0,0,8,0,0|0,0,0,0,0,1,0,0,0|0,0,6,0,0,0,5,0,0|8,1,4,0,0,0,3,2,6|];
Region=[|1,1,1,2,2,2,2,3,3|1,1,1,5,2,2,2,3,3|1,1,1,5,2,2,3,3,3|4,4,4,5,5,5,6,3,3|4,4,5,5,5,5,6,6,6|4,4,4,7,8,6,6,6,6|4,7,7,7,8,9,9,9,6|7,7,7,8,8,8,9,9,9|7,7,8,8,8,8,9,9,9|];
horizontal=[|0,0,0,0,0,0,0,0|1,0,0,0,0,1,0,0|0,0,0,0,0,0,0,0|1,0,1,0,0,1,0,0|0,0,0,0,0,1,0,0|0,0,1,0,0,0,0,0|0,0,1,0,0,0,0,0|0,0,0,1,1,0,0,0|0,0,0,0,0,0,1,0|];
vertical=[|1,1,0,1,0,0,0,0,1|0,0,1,0,0,0,1,0,0|0,0,1,0,0,0,0,1,0|0,0,0,1,0,1,1,0,0|1,1,1,0,0,0,1,0,0|1,0,0,0,0,0,1,0,0|1,0,1,0,0,0,0,1,0|1,0,0,0,0,0,0,0,0|];
